db/inputs/143231585718536208412576148471265816705.smt2
(set-logic QF_FP)
(declare-const x0 (_ FloatingPoint 8 24))
(declare-const x1 (_ FloatingPoint 8 24))
(declare-const x2 (_ FloatingPoint 8 24))
(declare-const x3 (_ FloatingPoint 8 24))
(declare-const x4 (_ FloatingPoint 8 24))
(declare-const x5 (_ FloatingPoint 8 24))
(declare-const x6 (_ FloatingPoint 8 24))
(declare-const x7 (_ FloatingPoint 8 24))
(declare-const x8 (_ FloatingPoint 8 24))
(declare-const x9 (_ FloatingPoint 8 24))
(declare-const x10 (_ FloatingPoint 8 24))
(declare-const x11 (_ FloatingPoint 8 24))
(declare-const x12 (_ FloatingPoint 8 24))
(declare-const x13 (_ FloatingPoint 8 24))
(declare-const x14 (_ FloatingPoint 8 24))
(declare-const x15 (_ FloatingPoint 8 24))
(declare-const x16 (_ FloatingPoint 8 24))
(declare-const x17 (_ FloatingPoint 8 24))
(declare-const x18 (_ FloatingPoint 8 24))
(declare-const x19 (_ FloatingPoint 8 24))
(declare-const x20 (_ FloatingPoint 8 24))
(declare-const x21 (_ FloatingPoint 8 24))
(declare-const x22 (_ FloatingPoint 8 24))
(declare-const x23 (_ FloatingPoint 8 24))
(declare-const x24 (_ FloatingPoint 8 24))
(assert (fp.gt (fp.div RNE (fp.add RNE (fp.mul RNE (fp.div RNE x2 x18) (fp.mul RNE x24 x2)) (fp.add RNE (fp.neg x21) (fp.div RNE x3 x17))) (fp.add RNE (fp.mul RNE (fp.div RNE x1 x7) (fp.add RNE x13 x4)) (fp.mul RNE (fp.sub RNE x5 x3) (fp.mul RNE x4 x15)))) (fp.neg (fp.sub RNE (fp.div RNE (fp.sub RNE x0 x23) (fp.mul RNE x3 x9)) (fp.mul RNE (fp.mul RNE x9 x7) (fp.div RNE x1 x20))))))
(assert (fp.leq (fp.neg (fp.mul RNE (fp.neg (fp.neg x11)) (fp.neg (fp.neg x12)))) (fp.neg (fp.mul RNE (fp.mul RNE (fp.mul RNE x7 x5) (fp.mul RNE x18 x14)) (fp.sub RNE (fp.add RNE x13 x18) (fp.div RNE x14 x17))))))
(assert (fp.leq (fp.neg (fp.mul RNE (fp.mul RNE (fp.add RNE x16 x1) (fp.div RNE x22 x0)) (fp.div RNE (fp.div RNE x7 x23) (fp.mul RNE x11 x24)))) (fp.div RNE (fp.mul RNE (fp.sub RNE (fp.sub RNE x16 x9) (fp.add RNE x17 x13)) (fp.div RNE (fp.neg x21) (fp.add RNE x15 x12))) (fp.div RNE (fp.mul RNE (fp.mul RNE x5 x22) (fp.sub RNE x2 x18)) (fp.mul RNE (fp.sub RNE x9 x17) (fp.sub RNE x24 x3))))))
(assert (fp.eq (fp.neg (fp.neg (fp.sub RNE (fp.sub RNE x19 x4) (fp.mul RNE x17 x7)))) (fp.div RNE (fp.div RNE (fp.neg (fp.neg x20)) (fp.add RNE (fp.mul RNE x17 x19) (fp.neg x12))) (fp.sub RNE (fp.neg (fp.neg x11)) (fp.div RNE (fp.add RNE x17 x9) (fp.sub RNE x23 x14))))))
(assert (fp.geq (fp.div RNE (fp.add RNE (fp.sub RNE (fp.neg x0) (fp.sub RNE x21 x6)) (fp.div RNE (fp.sub RNE x14 x8) (fp.mul RNE x0 x12))) (fp.add RNE (fp.neg (fp.div RNE x14 x12)) (fp.sub RNE (fp.div RNE x10 x16) (fp.mul RNE x19 x17)))) (fp.sub RNE (fp.mul RNE (fp.add RNE (fp.neg x8) (fp.div RNE x8 x18)) (fp.div RNE (fp.div RNE x8 x2) (fp.neg x18))) (fp.sub RNE (fp.mul RNE (fp.add RNE x12 x14) (fp.mul RNE x13 x18)) (fp.sub RNE (fp.add RNE x22 x3) (fp.add RNE x11 x17))))))
(assert (fp.gt (fp.sub RNE (fp.div RNE (fp.sub RNE (fp.add RNE x19 x9) (fp.mul RNE x11 x19)) (fp.neg (fp.div RNE x3 x2))) (fp.add RNE (fp.add RNE (fp.sub RNE x24 x14) (fp.add RNE x4 x23)) (fp.mul RNE (fp.div RNE x0 x3) (fp.sub RNE x15 x1)))) (fp.neg (fp.sub RNE (fp.neg (fp.mul RNE x9 x4)) (fp.add RNE (fp.mul RNE x2 x2) (fp.add RNE x15 x3))))))
(assert (fp.gt (fp.div RNE (fp.sub RNE (fp.div RNE (fp.add RNE x15 x12) (fp.neg x9)) (fp.neg (fp.neg x6))) (fp.add RNE (fp.add RNE (fp.sub RNE x13 x9) (fp.add RNE x12 x23)) (fp.sub RNE (fp.sub RNE x7 x24) (fp.sub RNE x3 x16)))) (fp.sub RNE (fp.sub RNE (fp.div RNE (fp.div RNE x4 x11) (fp.div RNE x15 x21)) (fp.div RNE (fp.add RNE x13 x23) (fp.sub RNE x1 x3))) (fp.neg (fp.add RNE (fp.neg x19) (fp.neg x19))))))
(assert (fp.leq (fp.add RNE (fp.neg (fp.neg (fp.mul RNE x2 x1))) (fp.div RNE (fp.mul RNE (fp.div RNE x22 x4) (fp.mul RNE x17 x21)) (fp.neg (fp.sub RNE x14 x5)))) (fp.sub RNE (fp.div RNE (fp.div RNE (fp.mul RNE x17 x19) (fp.sub RNE x24 x23)) (fp.neg (fp.div RNE x5 x16))) (fp.add RNE (fp.neg (fp.neg x10)) (fp.mul RNE (fp.mul RNE x19 x19) (fp.sub RNE x16 x18))))))
(assert (fp.gt (fp.sub RNE (fp.mul RNE (fp.div RNE (fp.add RNE x9 x0) (fp.neg x6)) (fp.add RNE (fp.neg x9) (fp.mul RNE x16 x16))) (fp.mul RNE (fp.mul RNE (fp.div RNE x9 x19) (fp.neg x23)) (fp.add RNE (fp.sub RNE x19 x21) (fp.sub RNE x11 x16)))) (fp.sub RNE (fp.add RNE (fp.add RNE (fp.sub RNE x6 x7) (fp.neg x19)) (fp.add RNE (fp.neg x11) (fp.sub RNE x19 x21))) (fp.sub RNE (fp.mul RNE (fp.neg x15) (fp.mul RNE x0 x20)) (fp.neg (fp.mul RNE x14 x19))))))
(assert (fp.lt (fp.add RNE (fp.add RNE (fp.sub RNE (fp.neg x13) (fp.sub RNE x20 x7)) (fp.neg (fp.sub RNE x21 x11))) (fp.add RNE (fp.mul RNE (fp.mul RNE x24 x22) (fp.neg x0)) (fp.div RNE (fp.add RNE x18 x0) (fp.sub RNE x14 x14)))) (fp.add RNE (fp.mul RNE (fp.add RNE (fp.mul RNE x0 x3) (fp.mul RNE x24 x7)) (fp.div RNE (fp.mul RNE x16 x13) (fp.add RNE x19 x24))) (fp.neg (fp.sub RNE (fp.div RNE x6 x1) (fp.div RNE x8 x24))))))
(assert (fp.geq (fp.neg (fp.mul RNE (fp.sub RNE (fp.sub RNE x0 x13) (fp.mul RNE x10 x9)) (fp.add RNE (fp.neg x24) (fp.add RNE x12 x0)))) (fp.div RNE (fp.div RNE (fp.add RNE (fp.neg x15) (fp.add RNE x14 x10)) (fp.add RNE (fp.sub RNE x4 x13) (fp.div RNE x1 x0))) (fp.div RNE (fp.neg (fp.sub RNE x16 x8)) (fp.mul RNE (fp.div RNE x1 x8) (fp.div RNE x9 x21))))))
(assert (fp.lt (fp.mul RNE (fp.sub RNE (fp.mul RNE (fp.mul RNE x23 x6) (fp.add RNE x23 x21)) (fp.sub RNE (fp.add RNE x1 x21) (fp.neg x2))) (fp.mul RNE (fp.mul RNE (fp.mul RNE x15 x16) (fp.div RNE x8 x23)) (fp.add RNE (fp.add RNE x13 x6) (fp.mul RNE x11 x13)))) (fp.sub RNE (fp.sub RNE (fp.mul RNE (fp.sub RNE x8 x18) (fp.mul RNE x15 x13)) (fp.sub RNE (fp.div RNE x1 x5) (fp.div RNE x3 x24))) (fp.div RNE (fp.add RNE (fp.mul RNE x20 x20) (fp.add RNE x11 x0)) (fp.neg (fp.mul RNE x6 x11))))))
(assert (fp.lt (fp.mul RNE (fp.neg (fp.add RNE (fp.mul RNE x5 x11) (fp.neg x13))) (fp.sub RNE (fp.mul RNE (fp.add RNE x16 x22) (fp.sub RNE x14 x15)) (fp.sub RNE (fp.mul RNE x2 x18) (fp.div RNE x23 x2)))) (fp.add RNE (fp.add RNE (fp.div RNE (fp.div RNE x7 x5) (fp.mul RNE x7 x0)) (fp.div RNE (fp.div RNE x24 x20) (fp.sub RNE x4 x19))) (fp.mul RNE (fp.div RNE (fp.mul RNE x23 x22) (fp.div RNE x24 x0)) (fp.mul RNE (fp.sub RNE x1 x14) (fp.neg x13))))))
(assert (fp.geq (fp.div RNE (fp.mul RNE (fp.sub RNE (fp.mul RNE x3 x10) (fp.neg x10)) (fp.mul RNE (fp.mul RNE x10 x13) (fp.add RNE x0 x11))) (fp.neg (fp.sub RNE (fp.sub RNE x17 x24) (fp.sub RNE x17 x10)))) (fp.add RNE (fp.add RNE (fp.div RNE (fp.sub RNE x3 x16) (fp.mul RNE x12 x7)) (fp.neg (fp.neg x23))) (fp.div RNE (fp.mul RNE (fp.div RNE x15 x21) (fp.add RNE x22 x14)) (fp.div RNE (fp.div RNE x3 x16) (fp.neg x21))))))
(assert (fp.gt (fp.mul RNE (fp.div RNE (fp.div RNE (fp.mul RNE x17 x9) (fp.add RNE x13 x18)) (fp.div RNE (fp.div RNE x8 x20) (fp.neg x5))) (fp.sub RNE (fp.sub RNE (fp.mul RNE x16 x4) (fp.mul RNE x21 x8)) (fp.div RNE (fp.sub RNE x6 x10) (fp.neg x14)))) (fp.mul RNE (fp.mul RNE (fp.div RNE (fp.neg x19) (fp.sub RNE x2 x2)) (fp.add RNE (fp.neg x14) (fp.div RNE x7 x4))) (fp.add RNE (fp.sub RNE (fp.sub RNE x9 x18) (fp.add RNE x1 x12)) (fp.sub RNE (fp.neg x6) (fp.mul RNE x8 x3))))))
(assert (fp.lt (fp.div RNE (fp.mul RNE (fp.sub RNE (fp.sub RNE x15 x5) (fp.div RNE x13 x7)) (fp.add RNE (fp.mul RNE x13 x11) (fp.mul RNE x6 x4))) (fp.neg (fp.mul RNE (fp.div RNE x14 x23) (fp.div RNE x9 x16)))) (fp.neg (fp.sub RNE (fp.add RNE (fp.div RNE x11 x4) (fp.sub RNE x8 x8)) (fp.div RNE (fp.sub RNE x23 x7) (fp.sub RNE x11 x3))))))
(check-sat)
