db/data/143231585718536208412576148471265816705.z3.out
-------------------
2500.185767984
